(declare-fun bvlambda_4_ ()Bool         )
(declare-fun bvlambda_5_ ()Bool         )
(declare-fun bvlambda_6_ () (_ BitVec 5))
(declare-fun bvlambda_7_ ()Bool         )
(declare-fun bvlambda_8_ () (_ BitVec 2))
(declare-fun bvlambda_9_ ()Bool         )
(declare-fun bvlambda_10_ () (_ BitVec 2))
(declare-fun bvlambda_11_ ()Bool         )
(declare-fun bvlambda_32_ ()Bool         )
(declare-fun bvlambda_33_ () (_ BitVec 3))
(declare-fun bvlambda_36_ () (_ BitVec 2))
(declare-fun bvlambda_37_ ()Bool         )
(declare-fun bvlambda_38_ ()Bool         )
(declare-fun bvlambda_39_ ()Bool         )
(declare-fun a65 () (Array (_ BitVec 1) (_ BitVec 14)))
(assert
(let (($e12 (_ bv0 5)))
(let (($e18 (_ bv0 13)))
(let (($e83 (concat bvlambda_4_ bvlambda_5_)))
(let (($e84 (concat $e83 bvlambda_6_)))
(let (($e85 (concat $e84 bvlambda_7_)))
(let (($e86 (concat $e85 bvlambda_8_)))
(let (($e87 (concat $e86 bvlambda_9_)))
(let (($e88 (concat $e87 bvlambda_10_)))
(let (($e89 (concat $e88 bvlambda_11_)))
(let (($e97 (concat bvlambda_32_ bvlambda_33_)))
(let (($e98 (concat $e97 bvlambda_38_)))
(let (($e99 (concat $e98 bvlambda_39_)))
(let (($e100 (concat $e99 bvlambda_36_)))
(let (($e101 (concat $e100 bvlambda_37_)))
(let (($e102                           $e101  ))
(let (($e103                           $e102       ))
(let (($e104                     $e103 ))
(let (($e106                                 $e104 ))
(let (($e107 (   extract      $e106)))
(let (($e109 (concat        $e12  $e106)))
(let (($e111                    $e109       ))
(let (($e112 (store a65 true        $e111)))
(let (($e113 (store $e112 $e107 $e89)))
(let (($e114 (select $e113 true       )))
(let (($e274 (concat $e18 bvlambda_32_)))
(let (($e275        $e274       ))
                  (bvult $e114 $e275)
                                                                                                                                                                                                                                                                                                                                                                                                                                                                                                                                                                                                                                                                                                                                                                                                                                                                                                                                                                                                                                                                                                                                                                                                                                                                                                             ))                                                                                                                                                               )))) ) )) ))))))))       )))))))                       )     )           )
